generated by phonopy
   1.0
    15.9499549864256842    0.0000000000000000    0.0000000000000000
    -7.9749774932128421   13.8130662074629225    0.0000000000000000
     0.0000000000000000    0.0000000000000000   21.1471729299027302
Mo S
  25   50
Direct
  0.0000000000000000  0.0000000000000000  0.5000000000000000
  0.2000000000000000  0.0000000000000000  0.5000000000000000
  0.4000000000000000  0.0000000000000000  0.5000000000000000
  0.6000000000000001  0.0000000000000000  0.5000000000000000
  0.8000000000000000  0.0000000000000000  0.5000000000000000
  0.0000000000000000  0.2000000000000000  0.5000000000000000
  0.2000000000000000  0.2000000000000000  0.5000000000000000
  0.4000000000000000  0.2000000000000000  0.5000000000000000
  0.6000000000000001  0.2000000000000000  0.5000000000000000
  0.8000000000000000  0.2000000000000000  0.5000000000000000
  0.0000000000000000  0.4000000000000000  0.5000000000000000
  0.2000000000000000  0.4000000000000000  0.5000000000000000
  0.4000000000000000  0.4000000000000000  0.5000000000000000
  0.6000000000000001  0.4000000000000000  0.5000000000000000
  0.8000000000000000  0.4000000000000000  0.5000000000000000
  0.0000000000000000  0.6000000000000001  0.5000000000000000
  0.2000000000000000  0.6000000000000001  0.5000000000000000
  0.4000000000000000  0.6000000000000001  0.5000000000000000
  0.6000000000000001  0.6000000000000001  0.5000000000000000
  0.8000000000000000  0.6000000000000001  0.5000000000000000
  0.0000000000000000  0.8000000000000000  0.5000000000000000
  0.2000000000000000  0.8000000000000000  0.5000000000000000
  0.4000000000000000  0.8000000000000000  0.5000000000000000
  0.6000000000000001  0.8000000000000000  0.5000000000000000
  0.8000000000000000  0.8000000000000000  0.5000000000000000
  0.1337108655133352  0.0666666666666671  0.4265954048432823
  0.3333333333333329  0.0666666666666671  0.4262178726632799
  0.5333333333333329  0.0666666666666671  0.4262178726632799
  0.7333333333333329  0.0666666666666671  0.4262178726632799
  0.9333333333333329  0.0666666666666671  0.4262178726632799
  0.1333333333333329  0.2666666666666672  0.4262178726632799
  0.3333333333333329  0.2666666666666672  0.4262178726632799
  0.5333333333333329  0.2666666666666672  0.4262178726632799
  0.7333333333333329  0.2666666666666672  0.4262178726632799
  0.9333333333333329  0.2666666666666672  0.4262178726632799
  0.1333333333333329  0.4666666666666672  0.4262178726632799
  0.3333333333333329  0.4666666666666672  0.4262178726632799
  0.5333333333333329  0.4666666666666672  0.4262178726632799
  0.7333333333333329  0.4666666666666672  0.4262178726632799
  0.9333333333333329  0.4666666666666672  0.4262178726632799
  0.1333333333333328  0.6666666666666672  0.4262178726632799
  0.3333333333333329  0.6666666666666672  0.4262178726632799
  0.5333333333333329  0.6666666666666672  0.4262178726632799
  0.7333333333333329  0.6666666666666672  0.4262178726632799
  0.9333333333333329  0.6666666666666672  0.4262178726632799
  0.1333333333333328  0.8666666666666671  0.4262178726632799
  0.3333333333333329  0.8666666666666671  0.4262178726632799
  0.5333333333333329  0.8666666666666671  0.4262178726632799
  0.7333333333333329  0.8666666666666671  0.4262178726632799
  0.9333333333333329  0.8666666666666671  0.4262178726632799
  0.1333333333333329  0.0666666666666671  0.5737821273367202
  0.3333333333333329  0.0666666666666671  0.5737821273367202
  0.5333333333333329  0.0666666666666671  0.5737821273367202
  0.7333333333333329  0.0666666666666671  0.5737821273367202
  0.9333333333333329  0.0666666666666671  0.5737821273367202
  0.1333333333333329  0.2666666666666672  0.5737821273367202
  0.3333333333333329  0.2666666666666672  0.5737821273367202
  0.5333333333333329  0.2666666666666672  0.5737821273367202
  0.7333333333333329  0.2666666666666672  0.5737821273367202
  0.9333333333333329  0.2666666666666672  0.5737821273367202
  0.1333333333333329  0.4666666666666672  0.5737821273367202
  0.3333333333333329  0.4666666666666672  0.5737821273367202
  0.5333333333333329  0.4666666666666672  0.5737821273367202
  0.7333333333333329  0.4666666666666672  0.5737821273367202
  0.9333333333333329  0.4666666666666672  0.5737821273367202
  0.1333333333333328  0.6666666666666672  0.5737821273367202
  0.3333333333333329  0.6666666666666672  0.5737821273367202
  0.5333333333333329  0.6666666666666672  0.5737821273367202
  0.7333333333333329  0.6666666666666672  0.5737821273367202
  0.9333333333333329  0.6666666666666672  0.5737821273367202
  0.1333333333333328  0.8666666666666671  0.5737821273367202
  0.3333333333333329  0.8666666666666671  0.5737821273367202
  0.5333333333333329  0.8666666666666671  0.5737821273367202
  0.7333333333333329  0.8666666666666671  0.5737821273367202
  0.9333333333333329  0.8666666666666671  0.5737821273367202
