generated by phonopy
   1.0
    17.5996683129820894    0.0000000000000000    0.0000000000000000
    -8.7998341564910447   15.2417598572225064    0.0000000000000000
     0.0000000000000000    0.0000000000000000   19.9215144524399825
B N
  49   49
Direct
  0.0000000000000000  0.0000000000000000  0.5000000000000000
  0.1428571428571428  0.0000000000000000  0.5000000000000000
  0.2857142857142857  0.0000000000000000  0.5000000000000000
  0.4285714285714285  0.0000000000000000  0.5000000000000000
  0.5714285714285714  0.0000000000000000  0.5000000000000000
  0.7142857142857142  0.0000000000000000  0.5000000000000000
  0.8571428571428571  0.0000000000000000  0.5000000000000000
  0.0000000000000000  0.1428571428571428  0.5000000000000000
  0.1428571428571428  0.1428571428571428  0.5000000000000000
  0.2857142857142857  0.1428571428571428  0.5000000000000000
  0.4285714285714285  0.1428571428571428  0.5000000000000000
  0.5714285714285714  0.1428571428571428  0.5000000000000000
  0.7142857142857142  0.1428571428571428  0.5000000000000000
  0.8571428571428571  0.1428571428571428  0.5000000000000000
  0.0000000000000000  0.2857142857142857  0.5000000000000000
  0.1428571428571428  0.2857142857142857  0.5000000000000000
  0.2857142857142857  0.2857142857142857  0.5000000000000000
  0.4285714285714285  0.2857142857142857  0.5000000000000000
  0.5714285714285714  0.2857142857142857  0.5000000000000000
  0.7142857142857142  0.2857142857142857  0.5000000000000000
  0.8571428571428571  0.2857142857142857  0.5000000000000000
  0.0000000000000000  0.4285714285714285  0.5000000000000000
  0.1428571428571428  0.4285714285714285  0.5000000000000000
  0.2857142857142857  0.4285714285714285  0.5000000000000000
  0.4285714285714285  0.4285714285714285  0.5000000000000000
  0.5714285714285714  0.4285714285714285  0.5000000000000000
  0.7142857142857142  0.4285714285714285  0.5000000000000000
  0.8571428571428571  0.4285714285714285  0.5000000000000000
  0.0000000000000000  0.5714285714285714  0.5000000000000000
  0.1428571428571428  0.5714285714285714  0.5000000000000000
  0.2857142857142857  0.5714285714285714  0.5000000000000000
  0.4285714285714285  0.5714285714285714  0.5000000000000000
  0.5714285714285714  0.5714285714285714  0.5000000000000000
  0.7142857142857142  0.5714285714285714  0.5000000000000000
  0.8571428571428571  0.5714285714285714  0.5000000000000000
  0.0000000000000000  0.7142857142857142  0.5000000000000000
  0.1428571428571428  0.7142857142857142  0.5000000000000000
  0.2857142857142857  0.7142857142857142  0.5000000000000000
  0.4285714285714285  0.7142857142857142  0.5000000000000000
  0.5714285714285714  0.7142857142857142  0.5000000000000000
  0.7142857142857142  0.7142857142857142  0.5000000000000000
  0.8571428571428571  0.7142857142857142  0.5000000000000000
  0.0000000000000000  0.8571428571428571  0.5000000000000000
  0.1428571428571428  0.8571428571428571  0.5000000000000000
  0.2857142857142857  0.8571428571428571  0.5000000000000000
  0.4285714285714285  0.8571428571428571  0.5000000000000000
  0.5714285714285714  0.8571428571428571  0.5000000000000000
  0.7142857142857142  0.8571428571428571  0.5000000000000000
  0.8571428571428571  0.8571428571428571  0.5000000000000000
  0.0476190476190479  0.0952380952380949  0.5000000000000000
  0.1904761904761908  0.0952380952380949  0.5000000000000000
  0.3333333333333336  0.0952380952380949  0.5000000000000000
  0.4761904761904765  0.0952380952380949  0.5000000000000000
  0.6190476190476194  0.0952380952380949  0.5000000000000000
  0.7619047619047622  0.0952380952380949  0.5000000000000000
  0.9047619047619051  0.0952380952380949  0.5000000000000000
  0.0476190476190479  0.2380952380952377  0.5000000000000000
  0.1904761904761908  0.2380952380952377  0.5000000000000000
  0.3333333333333336  0.2380952380952377  0.5000000000000000
  0.4761904761904765  0.2380952380952377  0.5000000000000000
  0.6190476190476194  0.2380952380952377  0.5000000000000000
  0.7619047619047622  0.2380952380952377  0.5000000000000000
  0.9047619047619051  0.2380952380952377  0.5000000000000000
  0.0476190476190479  0.3809523809523806  0.5000000000000000
  0.1904761904761908  0.3809523809523806  0.5000000000000000
  0.3333333333333336  0.3809523809523806  0.5000000000000000
  0.4761904761904765  0.3809523809523806  0.5000000000000000
  0.6190476190476194  0.3809523809523806  0.5000000000000000
  0.7619047619047622  0.3809523809523806  0.5000000000000000
  0.9047619047619051  0.3809523809523806  0.5000000000000000
  0.0476190476190479  0.5238095238095234  0.5000000000000000
  0.1904761904761908  0.5238095238095234  0.5000000000000000
  0.3333333333333336  0.5238095238095234  0.5000000000000000
  0.4761904761904765  0.5238095238095234  0.5000000000000000
  0.6190476190476194  0.5238095238095234  0.5000000000000000
  0.7619047619047622  0.5238095238095234  0.5000000000000000
  0.9047619047619051  0.5238095238095234  0.5000000000000000
  0.0476190476190479  0.6666666666666663  0.5000000000000000
  0.1904761904761908  0.6666666666666663  0.5000000000000000
  0.3333333333333336  0.6666666666666663  0.5000000000000000
  0.4761904761904765  0.6666666666666663  0.5000000000000000
  0.6190476190476194  0.6666666666666663  0.5000000000000000
  0.7619047619047622  0.6666666666666663  0.5000000000000000
  0.9047619047619051  0.6666666666666663  0.5000000000000000
  0.0476190476190479  0.8095238095238091  0.5000000000000000
  0.1904761904761908  0.8095238095238091  0.5000000000000000
  0.3333333333333336  0.8095238095238091  0.5000000000000000
  0.4761904761904765  0.8095238095238091  0.5000000000000000
  0.6190476190476194  0.8095238095238091  0.5000000000000000
  0.7619047619047622  0.8095238095238091  0.5000000000000000
  0.9047619047619051  0.8095238095238091  0.5000000000000000
  0.0476190476190479  0.9523809523809520  0.5000000000000000
  0.1904761904761908  0.9523809523809520  0.5000000000000000
  0.3333333333333336  0.9523809523809520  0.5000000000000000
  0.4761904761904765  0.9523809523809520  0.5000000000000000
  0.6190476190476194  0.9523809523809520  0.5000000000000000
  0.7619047619047622  0.9523809523809520  0.5000000000000000
  0.9047619047619051  0.9523809523809520  0.5000000000000000
