      PREC = Accurate
    IBRION = -1
       NSW = 0
    NELMIN = 5
      ISIF = 2
     ENCUT = 500.000000
     EDIFF = 1.000000e-08
    EDIFFG = -1.000000e-08
    ISMEAR = 0
     SIGMA = 1.000000e-02
     IALGO = 38
     LREAL = .FALSE.
   ADDGRID = .TRUE.
     LWAVE = .FALSE.
    LCHARG = .FALSE.
    NCORE = 16
