 generated by phonopy                   
   1.0000000000000000     
     3.1899909972851370    0.0000000000000000    0.0000000000000000
    -1.5949954986425685    2.7626132414925846    0.0000000000000000
     0.0000000000000000    0.0000000000000000   21.1471729299027302
   Mo   S 
     1     2
Direct
  0.0000000000000000 -0.0000000000000000  0.5000000000000000
  0.6666666666666643  0.3333333333333357  0.4262178726632799
  0.6666666666666643  0.3333333333333357  0.5737821273367202

  0.00000000E+00  0.00000000E+00  0.00000000E+00
  0.00000000E+00  0.00000000E+00  0.00000000E+00
  0.00000000E+00  0.00000000E+00  0.00000000E+00
