generated by phonopy
   1.0
    17.5996683129820894    0.0000000000000000    0.0000000000000000
    -8.7998341564910447   15.2417598572225064    0.0000000000000000
     0.0000000000000000    0.0000000000000000   19.9215144524399825
B N C
  48   48    1
Direct
  0.9994300985306459  0.0000599216190577  0.5000000000000000
  0.1416470579046686  0.9987189541420758  0.5000000000000000
  0.2849226024362966  0.9984166334440239  0.5000000000000000
  0.4285004676659837  0.9987189541420758  0.5000000000000000
  0.5720583945169809  0.0000599216190577  0.5000000000000000
  0.7153065518358972  0.0021429204347068  0.5000000000000000
  0.8582649400273792  0.0021429204347068  0.5000000000000000
  0.0008079171391703  0.1440826399889598  0.5000000000000000
  0.1425935497903350  0.1424478349949096  0.5000000000000000
  0.2847022117459703  0.1411297190859438  0.5000000000000000
  0.4278560787685426  0.1411297190859438  0.5000000000000000
  0.5712828566331440  0.1424478349949096  0.5000000000000000
  0.7147032942783592  0.1440826399889598  0.5000000000000000
  0.8580526292566867  0.1446766870848109  0.5000000000000000
  0.0009547596395633  0.2871301050057600  0.5000000000000000
  0.1437255246267780  0.2864536962679779  0.5000000000000000
  0.2854097719519850  0.2846937364183437  0.5000000000000000
  0.4272443103180880  0.2830600492075995  0.5000000000000000
  0.5707125358949279  0.2846937364183437  0.5000000000000000
  0.7141567430697762  0.2864536962679779  0.5000000000000000
  0.8576039167947659  0.2871301050057600  0.5000000000000000
  0.0005447891166004  0.4296610068046313  0.5000000000000000
  0.1442268983290087  0.4295755141058101  0.5000000000000000
  0.2873021272156153  0.4291800543144406  0.5000000000000000
  0.4279765353644785  0.4256972591857056  0.5000000000000000
  0.5691492952497963  0.4256972591857056  0.5000000000000000
  0.7133064985273946  0.4291800543144406  0.5000000000000000
  0.8567771872053707  0.4295755141058101  0.5000000000000000
  0.9992825493938901  0.5718146227951431  0.5000000000000000
  0.1439606448298294  0.5718146227951431  0.5000000000000000
  0.2886278698763429  0.5718162473090176  0.5000000000000000
  0.4331320917359129  0.5721556435380212  0.5000000000000000
  0.7104521232306846  0.5721556435380212  0.5000000000000000
  0.8546169488612437  0.5718162473090176  0.5000000000000000
  0.9970723363177428  0.7137051846197278  0.5000000000000000
  0.1425551932669855  0.7136818151053945  0.5000000000000000
  0.2880614197305545  0.7137051846197278  0.5000000000000000
  0.4346419140785011  0.7138254049608512  0.5000000000000000
  0.5851082614250770  0.7162693652443938  0.5000000000000000
  0.7025896752478864  0.7162693652443938  0.5000000000000000
  0.8506120623109197  0.7138254049608512  0.5000000000000000
  0.9977717495341550  0.8561349271594785  0.5000000000000000
  0.1416089807701519  0.8559128765261205  0.5000000000000000
  0.2857324671845450  0.8559128765261205  0.5000000000000000
  0.4297917490539002  0.8561349271594785  0.5000000000000000
  0.5734254104881968  0.8575869037563065  0.5000000000000000
  0.7164063334378665  0.8613840954471560  0.5000000000000000
  0.8555900646966795  0.8575869037563065  0.5000000000000000
  0.0475426988364205  0.0954778829307056  0.5000000000000000
  0.1895783250861106  0.0940565668732138  0.5000000000000000
  0.3325418151885190  0.0936550589484615  0.5000000000000000
  0.4759068132156724  0.0940565668732138  0.5000000000000000
  0.6193637555228615  0.0954778829307056  0.5000000000000000
  0.7628000427055416  0.0971927360503580  0.5000000000000000
  0.9058212647733858  0.0971927360503580  0.5000000000000000
  0.0485498265765631  0.2393428099274537  0.5000000000000000
  0.1904813826077713  0.2378296165453162  0.5000000000000000
  0.3323487793852883  0.2363466727647104  0.5000000000000000
  0.4754264648079915  0.2363466727647104  0.5000000000000000
  0.6187768053661143  0.2378296165453162  0.5000000000000000
  0.7622215547794599  0.2393428099274537  0.5000000000000000
  0.9056279716279430  0.2394511806945807  0.4996238088672647
  0.0487128826862109  0.3823282385847906  0.5000000000000000
  0.1918893963159519  0.3818421261309140  0.5000000000000000
  0.3335220606774292  0.3801396870134269  0.5000000000000000
  0.4747227005620269  0.3780168296954842  0.5000000000000000
  0.6180461977645741  0.3801396870134269  0.5000000000000000
  0.7613813012435316  0.3818421261309140  0.5000000000000000
  0.9050439273271562  0.3823282385847906  0.5000000000000000
  0.0481065434620811  0.5247845154955859  0.5000000000000000
  0.1926392919701644  0.5247686430482549  0.5000000000000000
  0.3369652088326739  0.5245543266279398  0.5000000000000000
  0.4783370393504928  0.5214672056292918  0.5000000000000000
  0.6145587377073687  0.5214672056292918  0.5000000000000000
  0.7590176892238358  0.5245543266279398  0.5000000000000000
  0.9035579225066597  0.5247686430482549  0.5000000000000000
  0.0464247335521719  0.6668522809497572  0.5000000000000000
  0.1918561188261623  0.6668522809497572  0.5000000000000000
  0.3377793063854507  0.6668879357341004  0.5000000000000000
  0.4861569952358497  0.6671075988130489  0.5000000000000000
  0.7523791750057687  0.6671075988130489  0.5000000000000000
  0.9005372007772264  0.6668879357341004  0.5000000000000000
  0.0458256174567634  0.8087936507652785  0.5000000000000000
  0.1900958016358358  0.8087630318431023  0.5000000000000000
  0.3343966047370918  0.8087936507652785  0.5000000000000000
  0.4784487195477818  0.8089706885576364  0.5000000000000000
  0.6220948693194708  0.8112947437815040  0.5000000000000000
  0.7606284458906025  0.8112947437815040  0.5000000000000000
  0.9019505404384243  0.8089706885576364  0.5000000000000000
  0.0462915662403195  0.9515438622485467  0.5000000000000000
  0.1894829067566363  0.9511303679662260  0.5000000000000000
  0.3330760326381660  0.9511303679662260  0.5000000000000000
  0.4766808674368037  0.9515438622485467  0.5000000000000000
  0.6201575104974585  0.9531374047433538  0.5000000000000000
  0.7635577213194331  0.9556868712102974  0.5000000000000000
  0.9044084656744722  0.9531374047433538  0.5000000000000000
  0.5683087254987653  0.5651888795689609  0.5000000000000000
